NAME : att48
TYPE : OP
DIMENSION : 48
COST_LIMIT : 5314
ROUTE_NODES : 29
ROUTE_SCORE : 1049
ROUTE_COST : 5298
NODE_SEQUENCE_SECTION
1
9
38
31
44
18
7
28
6
37
19
27
17
43
30
36
46
33
20
47
21
32
39
48
5
25
14
23
40
-1
DEPOT_SECTION
1
-1
EOF
